(set-logic LIA)
(set-info :license "https://creativecommons.org/licenses/by/4.0/")
(set-info :status "unsat")
(set-info :smt-lib-version "2.6")
(declare-fun ~a3~0 () Int)
(assert
  (and
    (not
      (exists ((v_~a3~0_2178 Int) (v_prenex_3 Int) (v_~a3~0_2176 Int) (quotient_1 Int) (reminder_0 Int) (reminder_3 Int) (reminder_2 Int) (quotient_4 Int))
        (and
          (= (* 1 reminder_0) 0)
          (<= (* (- 1) v_~a3~0_2176) (- 116))
          (<= (* 1 v_~a3~0_2178) 600334)
          (<= (+ (* 1 ~a3~0) (* (- 1) quotient_1)) (- 125943))
          (not
            (= (* 1 reminder_2) 0)
          )
          (<= (+ (* 1 v_prenex_3) (* (- 1) reminder_3)) 336)
          (<= (+ (* 1 v_~a3~0_2178) (* (- 1) quotient_4)) 219839)
          (<= (+ (* (- 1) v_~a3~0_2178) (* 5 quotient_1)) (- 600335))
          (<= (+ (* 1 v_~a3~0_2178) (* (- 5) quotient_1)) 600339)
          (<= (+ (* (- 1) v_~a3~0_2178) (* 5 reminder_2)) 0)
          (<= (+ (* 1 v_~a3~0_2178) (* (- 5) reminder_2)) 4)
          (<= (+ (* (- 1) v_prenex_3) (* 5 reminder_0)) 0)
          (<= (+ (* 1 v_prenex_3) (* (- 5) reminder_0)) 4)
          (<= (+ (* (- 1) v_prenex_3) (* 5 quotient_4)) (- 210150))
          (<= (+ (* 1 v_prenex_3) (* (- 5) quotient_4)) 210154)
          (<= (+ (* (- 1) v_~a3~0_2176) (* 55 reminder_3)) 0)
          (<= (+ (* 1 v_~a3~0_2176) (* (- 55) reminder_3)) 54)
        )
      )
    )
    (exists ((v_prenex_3 Int) (v_~a3~0_2176 Int) (v_prenex_13 Int) (quotient_7 Int) (reminder_6 Int) (reminder_9 Int) (reminder_8 Int) (quotient_5 Int))
      (and
        (= (* 1 reminder_6) 0)
        (<= (* (- 1) v_~a3~0_2176) (- 116))
        (= (* 1 reminder_8) 0)
        (<= (+ (* 1 v_prenex_13) (* (- 1) quotient_5)) 219839)
        (<= (+ (* 1 ~a3~0) (* (- 1) quotient_7)) (- 125944))
        (<= (+ (* 1 v_prenex_3) (* (- 1) reminder_9)) 336)
        (<= (+ (* (- 1) v_prenex_3) (* 5 quotient_5)) (- 210150))
        (<= (+ (* 1 v_prenex_3) (* (- 5) quotient_5)) 210154)
        (<= (+ (* (- 1) v_prenex_3) (* 5 reminder_6)) 0)
        (<= (+ (* 1 v_prenex_3) (* (- 5) reminder_6)) 4)
        (<= (+ (* (- 1) v_~a3~0_2176) (* 55 reminder_9)) 0)
        (<= (+ (* 1 v_~a3~0_2176) (* (- 55) reminder_9)) 54)
        (<= (+ (* (- 1) v_prenex_13) (* 5 quotient_7)) (- 600335))
        (<= (+ (* 1 v_prenex_13) (* (- 5) quotient_7)) 600339)
        (<= (+ (* (- 1) v_prenex_13) (* 5 reminder_8)) 0)
        (<= (+ (* 1 v_prenex_13) (* (- 5) reminder_8)) 4)
      )
    )
  )
)
(check-sat)

